language Essence 1.3

letting bot_end be
        [4935, 1677, 2445, 3174, 5513, 770, 5190, 5323, 419, 1130, 905, 1640, 2458, 1301, 2641, 724, 4463, 101, 4260,
         4496, 3067, 1210, 1933, 2311, 959, 727, 1155, 4399, 577, 3899, 3774, 3631, 1840, 3239, 1717, 1548, 4405, 4278,
         1737, 4023, 3245;
             int(1..41)]
letting bot_start be
        [2121, 5360, 1496, 1875, 1919, 5120, 3643, 4571, 5344, 1533, 3264, 1924, 2281, 2532, 4955, 4847, 360, 3221,
         2795, 1156, 246, 1780, 1882, 5193, 5299, 4988, 1650, 3012, 5164, 2649, 3425, 3244, 4178, 332, 3420, 5542, 2454,
         5370, 531, 4232, 440;
             int(1..41)]
letting bots be 41
letting buffer_col be 2
letting buffer_row be 2
letting corridor_size be 1
letting n_shelves_col be 31
letting n_shelves_row be 27
letting shelf_col_size be 2
letting shelf_row_size be 1
